benchmarks/loan_acquisition_new/nBench4/run2/mmc_encoding/encoding.dimacs
c max 144  145  150  151  152  153  154  155  184  185  186  195  196  197  198  199  200  201  202  203  207  208  212  213 0
c ind 527  528  531  532  535  536  539  540  543  544  547  548  551  554  557  558  561  564  567  568  571  572  573  576  577  580  581  584  585  588  589  592  593  596  597  599  600  601 0
c This is a CNF SAT formula in the DIMACS CNF format,
c produced with the bc2cnf translator by Tommi Junttila;
c see http://users.ics.aalto.fi/tjunttil/circuits/index.html
c phi_Gamma_det <-> 1
c phi_Gamma <-> 1
c phi_T_feature_det <-> 1
c phi_T_transitions <-> 1
c phi_T_transitions_consistency <-> 1
c phi_T <-> 1
c phi_sim_leaves <-> 1
c phi_sim_transition <-> 1
c phi_sim <-> 1
c FORMULA <-> 1
c pi_1 <-> 2
c pi_0 <-> 84
c tau_1_3_approved_1 <-> 144
c tau_1_3_approved_0 <-> 145
c tau_1_2_approved_1 <-> 150
c tau_1_2_approved_0 <-> 151
c tau_1_1_approved_1 <-> 152
c tau_1_1_approved_0 <-> 153
c tau_1_0_approved_1 <-> 154
c tau_1_0_approved_0 <-> 155
c tau_0_3_approved_1 <-> 184
c tau_0_3_approved_0 <-> 185
c tau_0_3_1 <-> 186
c tau_0_2_approved_1 <-> 195
c tau_0_2_approved_0 <-> 196
c tau_0_2_1 <-> 197
c tau_0_1_approved_1 <-> 198
c tau_0_1_approved_0 <-> 199
c tau_0_1_1 <-> 200
c tau_0_0_approved_1 <-> 201
c tau_0_0_approved_0 <-> 202
c tau_0_0_1 <-> 203
c lam_1_monthly_income <-> 207
c lam_1_age <-> 208
c lam_0_monthly_income <-> 212
c lam_0_age <-> 213
c phi_Gamma_val <-> 525
c monthly_income_P159200 <-> 527
c age_P7400 <-> 528
c monthly_income_P669300 <-> 531
c age_P5200 <-> 532
c monthly_income_P632400 <-> 535
c age_P6400 <-> 536
c monthly_income_P549100 <-> 539
c age_P7200 <-> 540
c monthly_income_P525800 <-> 543
c age_P6500 <-> 544
c monthly_income_P818600 <-> 547
c age_P7500 <-> 548
c monthly_income_P572400 <-> 551
c monthly_income_P170300 <-> 554
c monthly_income_P531200 <-> 557
c age_P2900 <-> 558
c monthly_income_P437500 <-> 561
c monthly_income_P594400 <-> 564
c monthly_income_P334900 <-> 567
c age_P3600 <-> 568
c pi_approved_0 <-> 571
c approved_P0 <-> 571
c monthly_income_P759800 <-> 572
c age_P2700 <-> 573
c monthly_income_P704800 <-> 576
c age_P4300 <-> 577
c monthly_income_P507100 <-> 580
c age_P7300 <-> 581
c monthly_income_P112600 <-> 584
c age_P6700 <-> 585
c monthly_income_P542100 <-> 588
c age_P5500 <-> 589
c monthly_income_P778500 <-> 592
c age_P6900 <-> 593
c monthly_income_P488900 <-> 596
c age_P4800 <-> 597
c pi_approved_1 <-> 599
c approved_P100 <-> 599
c monthly_income_P712200 <-> 600
c age_P7800 <-> 601
p cnf 601 1660
1 0
2 -3 0
2 -10 0
-2 10 3 0
-3 4 0
-3 65 0
3 -65 -4 0
-4 5 0
-4 207 0
4 -207 -5 0
5 -6 0
5 -57 0
-5 57 6 0
6 -7 0
6 -34 0
-6 34 7 0
7 -8 0
7 -40 0
-7 40 8 0
8 -9 0
8 -83 0
-8 83 9 0
9 -47 0
9 -72 0
-9 72 47 0
10 -11 0
10 -25 0
-10 25 11 0
-11 12 0
-11 75 0
11 -75 -12 0
-12 13 0
-12 207 0
12 -207 -13 0
13 -14 0
13 -32 0
-13 32 14 0
14 -15 0
14 -36 0
-14 36 15 0
15 -16 0
15 -38 0
-15 38 16 0
16 -17 0
16 -59 0
-16 59 17 0
17 -18 0
17 -80 0
-17 80 18 0
18 -19 0
18 -82 0
-18 82 19 0
19 -20 0
19 -42 0
-19 42 20 0
20 -21 0
20 -61 0
-20 61 21 0
21 -22 0
21 -70 0
-21 70 22 0
22 -23 0
22 -44 0
-22 44 23 0
23 -24 0
23 -46 0
-23 46 24 0
24 -62 0
24 -73 0
-24 73 62 0
25 -26 0
25 -50 0
-25 50 26 0
-26 27 0
-26 30 0
26 -30 -27 0
-27 28 0
-27 29 0
27 -29 -28 0
28 144 0
28 -599 0
-28 599 -144 0
29 145 0
29 -571 0
-29 571 -145 0
-30 31 0
-30 208 0
30 -208 -31 0
31 -32 0
31 -33 0
-31 33 32 0
-32 527 0
-32 528 0
32 -528 -527 0
33 -34 0
33 -35 0
-33 35 34 0
-34 535 0
-34 536 0
34 -536 -535 0
35 -36 0
35 -37 0
-35 37 36 0
-36 539 0
-36 540 0
36 -540 -539 0
37 -38 0
37 -39 0
-37 39 38 0
-38 543 0
-38 544 0
38 -544 -543 0
39 -40 0
39 -41 0
-39 41 40 0
-40 547 0
-40 548 0
40 -548 -547 0
41 -42 0
41 -43 0
-41 43 42 0
-42 561 0
-42 593 0
42 -593 -561 0
43 -44 0
43 -45 0
-43 45 44 0
-44 580 0
-44 581 0
44 -581 -580 0
45 -46 0
45 -47 0
-45 47 46 0
-46 584 0
-46 585 0
46 -585 -584 0
47 -48 0
47 -49 0
-47 49 48 0
-48 592 0
-48 593 0
48 -593 -592 0
-49 600 0
-49 601 0
49 -601 -600 0
50 -51 0
50 -63 0
-50 63 51 0
-51 52 0
-51 55 0
51 -55 -52 0
-52 53 0
-52 54 0
52 -54 -53 0
53 150 0
53 -599 0
-53 599 -150 0
54 151 0
54 -571 0
-54 571 -151 0
-55 56 0
-55 208 0
55 -208 -56 0
56 -57 0
56 -58 0
-56 58 57 0
-57 531 0
-57 532 0
57 -532 -531 0
58 -59 0
58 -60 0
-58 60 59 0
-59 551 0
-59 589 0
59 -589 -551 0
60 -61 0
60 -62 0
-60 62 61 0
-61 564 0
-61 589 0
61 -589 -564 0
-62 588 0
-62 589 0
62 -589 -588 0
63 -64 0
63 -74 0
-63 74 64 0
-64 65 0
-64 68 0
64 -68 -65 0
-65 66 0
-65 67 0
65 -67 -66 0
66 152 0
66 -599 0
-66 599 -152 0
67 153 0
67 -571 0
-67 571 -153 0
-68 69 0
-68 208 0
68 -208 -69 0
69 -70 0
69 -71 0
-69 71 70 0
-70 567 0
-70 568 0
70 -568 -567 0
71 -72 0
71 -73 0
-71 73 72 0
-72 576 0
-72 577 0
72 -577 -576 0
-73 596 0
-73 597 0
73 -597 -596 0
-74 75 0
-74 78 0
74 -78 -75 0
-75 76 0
-75 77 0
75 -77 -76 0
76 154 0
76 -599 0
-76 599 -154 0
77 155 0
77 -571 0
-77 571 -155 0
-78 79 0
-78 208 0
78 -208 -79 0
79 -80 0
79 -81 0
-79 81 80 0
-80 554 0
-80 558 0
80 -558 -554 0
81 -82 0
81 -83 0
-81 83 82 0
-82 557 0
-82 558 0
82 -558 -557 0
-83 572 0
-83 573 0
83 -573 -572 0
84 -85 0
84 -87 0
-84 87 85 0
84 0
-85 86 0
-85 108 0
85 -108 -86 0
-86 5 0
-86 212 0
86 -212 -5 0
87 -88 0
87 -90 0
-87 90 88 0
-88 89 0
-88 115 0
88 -115 -89 0
-89 13 0
-89 212 0
89 -212 -13 0
90 -91 0
90 -98 0
-90 98 91 0
-91 92 0
-91 97 0
91 -97 -92 0
-92 93 0
-92 94 0
92 -94 -93 0
93 184 0
93 -599 0
-93 599 -184 0
-94 95 0
-94 96 0
94 -96 -95 0
95 185 0
95 -571 0
-95 571 -185 0
96 -2 0
96 186 0
-96 -186 2 0
-97 31 0
-97 213 0
97 -213 -31 0
98 -99 0
98 -106 0
-98 106 99 0
-99 100 0
-99 105 0
99 -105 -100 0
-100 101 0
-100 102 0
100 -102 -101 0
101 195 0
101 -599 0
-101 599 -195 0
-102 103 0
-102 104 0
102 -104 -103 0
103 196 0
103 -571 0
-103 571 -196 0
104 -2 0
104 197 0
-104 -197 2 0
-105 56 0
-105 213 0
105 -213 -56 0
106 -107 0
106 -114 0
-106 114 107 0
-107 108 0
-107 113 0
107 -113 -108 0
-108 109 0
-108 110 0
108 -110 -109 0
109 198 0
109 -599 0
-109 599 -198 0
-110 111 0
-110 112 0
110 -112 -111 0
111 199 0
111 -571 0
-111 571 -199 0
112 -2 0
112 200 0
-112 -200 2 0
-113 69 0
-113 213 0
113 -213 -69 0
-114 115 0
-114 120 0
114 -120 -115 0
-115 116 0
-115 117 0
115 -117 -116 0
116 201 0
116 -599 0
-116 599 -201 0
-117 118 0
-117 119 0
117 -119 -118 0
118 202 0
118 -571 0
-118 571 -202 0
119 -2 0
119 203 0
-119 -203 2 0
-120 79 0
-120 213 0
120 -213 -79 0
121 207 0
121 -122 0
-121 122 -207 0
121 0
-122 -144 0
-122 123 0
122 -123 144 0
-123 -145 0
-123 124 0
123 -124 145 0
-124 -150 0
-124 -151 0
124 151 150 0
125 212 0
125 -126 0
-125 126 -212 0
125 0
-126 -184 0
-126 127 0
126 -127 184 0
-127 -185 0
-127 128 0
127 -128 185 0
-128 -186 0
-128 129 0
128 -129 186 0
-129 -195 0
-129 130 0
129 -130 195 0
-130 -196 0
-130 -197 0
130 197 196 0
131 207 0
131 -132 0
-131 132 -207 0
131 0
-132 133 0
-132 136 0
132 -136 -133 0
133 -134 0
133 -135 0
-133 135 134 0
-134 -153 0
-134 152 0
134 -152 153 0
-135 -152 0
-135 153 0
135 -153 152 0
136 -137 0
136 -138 0
-136 138 137 0
-137 -155 0
-137 154 0
137 -154 155 0
-138 -154 0
-138 155 0
138 -155 154 0
139 208 0
139 -140 0
-139 140 -208 0
139 0
-140 141 0
-140 146 0
140 -146 -141 0
141 -142 0
141 -143 0
-141 143 142 0
-142 -145 0
-142 144 0
142 -144 145 0
-143 -144 0
-143 145 0
143 -145 144 0
-146 132 0
-146 147 0
146 -147 -132 0
147 -148 0
147 -149 0
-147 149 148 0
-148 -151 0
-148 150 0
148 -150 151 0
-149 -150 0
-149 151 0
149 -151 150 0
156 212 0
156 -157 0
-156 157 -212 0
156 0
-157 158 0
-157 166 0
157 -166 -158 0
158 -159 0
158 -164 0
-158 164 159 0
159 -160 0
159 -162 0
-159 162 160 0
-160 161 0
-160 198 0
160 -198 -161 0
-161 -199 0
-161 -200 0
161 200 199 0
-162 163 0
-162 199 0
162 -199 -163 0
-163 -198 0
-163 -200 0
163 200 198 0
-164 165 0
-164 200 0
164 -200 -165 0
-165 -198 0
-165 -199 0
165 199 198 0
166 -167 0
166 -172 0
-166 172 167 0
167 -168 0
167 -170 0
-167 170 168 0
-168 169 0
-168 201 0
168 -201 -169 0
-169 -202 0
-169 -203 0
169 203 202 0
-170 171 0
-170 202 0
170 -202 -171 0
-171 -201 0
-171 -203 0
171 203 201 0
-172 173 0
-172 203 0
172 -203 -173 0
-173 -201 0
-173 -202 0
173 202 201 0
174 213 0
174 -175 0
-174 175 -213 0
174 0
-175 176 0
-175 187 0
175 -187 -176 0
176 -177 0
176 -182 0
-176 182 177 0
177 -178 0
177 -180 0
-177 180 178 0
-178 179 0
-178 184 0
178 -184 -179 0
-179 -185 0
-179 -186 0
179 186 185 0
-180 181 0
-180 185 0
180 -185 -181 0
-181 -184 0
-181 -186 0
181 186 184 0
-182 183 0
-182 186 0
182 -186 -183 0
-183 -184 0
-183 -185 0
183 185 184 0
-187 157 0
-187 188 0
187 -188 -157 0
188 -189 0
188 -193 0
-188 193 189 0
189 -190 0
189 -191 0
-189 191 190 0
-190 130 0
-190 195 0
190 -195 -130 0
-191 192 0
-191 196 0
191 -196 -192 0
-192 -195 0
-192 -197 0
192 197 195 0
-193 194 0
-193 197 0
193 -197 -194 0
-194 -195 0
-194 -196 0
194 196 195 0
204 -205 0
204 -206 0
-204 206 205 0
204 0
-205 -208 0
-205 207 0
205 -207 208 0
-206 -207 0
-206 208 0
206 -208 207 0
209 -210 0
209 -211 0
-209 211 210 0
209 0
-210 -213 0
-210 212 0
210 -212 213 0
-211 -212 0
-211 213 0
211 -213 212 0
214 599 0
214 571 0
-214 -571 -599 0
214 0
215 531 0
215 527 0
-215 -527 -531 0
215 0
216 535 0
216 -217 0
-216 217 -535 0
216 0
-217 -531 0
-217 -527 0
217 527 531 0
218 539 0
218 -219 0
-218 219 -539 0
218 0
-219 -527 0
-219 220 0
219 -220 527 0
-220 -531 0
-220 -535 0
220 535 531 0
221 543 0
221 -222 0
-221 222 -543 0
221 0
-222 -527 0
-222 223 0
222 -223 527 0
-223 -531 0
-223 224 0
223 -224 531 0
-224 -535 0
-224 -539 0
224 539 535 0
225 547 0
225 -226 0
-225 226 -547 0
225 0
-226 -527 0
-226 227 0
226 -227 527 0
-227 -531 0
-227 228 0
227 -228 531 0
-228 -535 0
-228 229 0
228 -229 535 0
-229 -539 0
-229 -543 0
229 543 539 0
230 551 0
230 -231 0
-230 231 -551 0
230 0
-231 -527 0
-231 232 0
231 -232 527 0
-232 -531 0
-232 233 0
232 -233 531 0
-233 -535 0
-233 234 0
233 -234 535 0
-234 -539 0
-234 235 0
234 -235 539 0
-235 -543 0
-235 -547 0
235 547 543 0
236 554 0
236 -237 0
-236 237 -554 0
236 0
-237 -527 0
-237 238 0
237 -238 527 0
-238 -531 0
-238 239 0
238 -239 531 0
-239 -535 0
-239 240 0
239 -240 535 0
-240 -539 0
-240 241 0
240 -241 539 0
-241 -543 0
-241 242 0
241 -242 543 0
-242 -547 0
-242 -551 0
242 551 547 0
243 557 0
243 -244 0
-243 244 -557 0
243 0
-244 -527 0
-244 245 0
244 -245 527 0
-245 -531 0
-245 246 0
245 -246 531 0
-246 -535 0
-246 247 0
246 -247 535 0
-247 -539 0
-247 248 0
247 -248 539 0
-248 -543 0
-248 249 0
248 -249 543 0
-249 -547 0
-249 250 0
249 -250 547 0
-250 -551 0
-250 -554 0
250 554 551 0
251 561 0
251 -252 0
-251 252 -561 0
251 0
-252 -527 0
-252 253 0
252 -253 527 0
-253 -531 0
-253 254 0
253 -254 531 0
-254 -535 0
-254 255 0
254 -255 535 0
-255 -539 0
-255 256 0
255 -256 539 0
-256 -543 0
-256 257 0
256 -257 543 0
-257 -547 0
-257 258 0
257 -258 547 0
-258 -551 0
-258 259 0
258 -259 551 0
-259 -554 0
-259 -557 0
259 557 554 0
260 564 0
260 -261 0
-260 261 -564 0
260 0
-261 -527 0
-261 262 0
261 -262 527 0
-262 -531 0
-262 263 0
262 -263 531 0
-263 -535 0
-263 264 0
263 -264 535 0
-264 -539 0
-264 265 0
264 -265 539 0
-265 -543 0
-265 266 0
265 -266 543 0
-266 -547 0
-266 267 0
266 -267 547 0
-267 -551 0
-267 268 0
267 -268 551 0
-268 -554 0
-268 269 0
268 -269 554 0
-269 -557 0
-269 -561 0
269 561 557 0
270 567 0
270 -271 0
-270 271 -567 0
270 0
-271 -527 0
-271 272 0
271 -272 527 0
-272 -531 0
-272 273 0
272 -273 531 0
-273 -535 0
-273 274 0
273 -274 535 0
-274 -539 0
-274 275 0
274 -275 539 0
-275 -543 0
-275 276 0
275 -276 543 0
-276 -547 0
-276 277 0
276 -277 547 0
-277 -551 0
-277 278 0
277 -278 551 0
-278 -554 0
-278 279 0
278 -279 554 0
-279 -557 0
-279 280 0
279 -280 557 0
-280 -561 0
-280 -564 0
280 564 561 0
281 572 0
281 -282 0
-281 282 -572 0
281 0
-282 -527 0
-282 283 0
282 -283 527 0
-283 -531 0
-283 284 0
283 -284 531 0
-284 -535 0
-284 285 0
284 -285 535 0
-285 -539 0
-285 286 0
285 -286 539 0
-286 -543 0
-286 287 0
286 -287 543 0
-287 -547 0
-287 288 0
287 -288 547 0
-288 -551 0
-288 289 0
288 -289 551 0
-289 -554 0
-289 290 0
289 -290 554 0
-290 -557 0
-290 291 0
290 -291 557 0
-291 -561 0
-291 292 0
291 -292 561 0
-292 -564 0
-292 -567 0
292 567 564 0
293 576 0
293 -294 0
-293 294 -576 0
293 0
-294 -527 0
-294 295 0
294 -295 527 0
-295 -531 0
-295 296 0
295 -296 531 0
-296 -535 0
-296 297 0
296 -297 535 0
-297 -539 0
-297 298 0
297 -298 539 0
-298 -543 0
-298 299 0
298 -299 543 0
-299 -547 0
-299 300 0
299 -300 547 0
-300 -551 0
-300 301 0
300 -301 551 0
-301 -554 0
-301 302 0
301 -302 554 0
-302 -557 0
-302 303 0
302 -303 557 0
-303 -561 0
-303 304 0
303 -304 561 0
-304 -564 0
-304 305 0
304 -305 564 0
-305 -567 0
-305 -572 0
305 572 567 0
306 580 0
306 -307 0
-306 307 -580 0
306 0
-307 -527 0
-307 308 0
307 -308 527 0
-308 -531 0
-308 309 0
308 -309 531 0
-309 -535 0
-309 310 0
309 -310 535 0
-310 -539 0
-310 311 0
310 -311 539 0
-311 -543 0
-311 312 0
311 -312 543 0
-312 -547 0
-312 313 0
312 -313 547 0
-313 -551 0
-313 314 0
313 -314 551 0
-314 -554 0
-314 315 0
314 -315 554 0
-315 -557 0
-315 316 0
315 -316 557 0
-316 -561 0
-316 317 0
316 -317 561 0
-317 -564 0
-317 318 0
317 -318 564 0
-318 -567 0
-318 319 0
318 -319 567 0
-319 -572 0
-319 -576 0
319 576 572 0
320 584 0
320 -321 0
-320 321 -584 0
320 0
-321 -527 0
-321 322 0
321 -322 527 0
-322 -531 0
-322 323 0
322 -323 531 0
-323 -535 0
-323 324 0
323 -324 535 0
-324 -539 0
-324 325 0
324 -325 539 0
-325 -543 0
-325 326 0
325 -326 543 0
-326 -547 0
-326 327 0
326 -327 547 0
-327 -551 0
-327 328 0
327 -328 551 0
-328 -554 0
-328 329 0
328 -329 554 0
-329 -557 0
-329 330 0
329 -330 557 0
-330 -561 0
-330 331 0
330 -331 561 0
-331 -564 0
-331 332 0
331 -332 564 0
-332 -567 0
-332 333 0
332 -333 567 0
-333 -572 0
-333 334 0
333 -334 572 0
-334 -576 0
-334 -580 0
334 580 576 0
335 588 0
335 -336 0
-335 336 -588 0
335 0
-336 -527 0
-336 337 0
336 -337 527 0
-337 -531 0
-337 338 0
337 -338 531 0
-338 -535 0
-338 339 0
338 -339 535 0
-339 -539 0
-339 340 0
339 -340 539 0
-340 -543 0
-340 341 0
340 -341 543 0
-341 -547 0
-341 342 0
341 -342 547 0
-342 -551 0
-342 343 0
342 -343 551 0
-343 -554 0
-343 344 0
343 -344 554 0
-344 -557 0
-344 345 0
344 -345 557 0
-345 -561 0
-345 346 0
345 -346 561 0
-346 -564 0
-346 347 0
346 -347 564 0
-347 -567 0
-347 348 0
347 -348 567 0
-348 -572 0
-348 349 0
348 -349 572 0
-349 -576 0
-349 350 0
349 -350 576 0
-350 -580 0
-350 -584 0
350 584 580 0
351 592 0
351 -352 0
-351 352 -592 0
351 0
-352 -527 0
-352 353 0
352 -353 527 0
-353 -531 0
-353 354 0
353 -354 531 0
-354 -535 0
-354 355 0
354 -355 535 0
-355 -539 0
-355 356 0
355 -356 539 0
-356 -543 0
-356 357 0
356 -357 543 0
-357 -547 0
-357 358 0
357 -358 547 0
-358 -551 0
-358 359 0
358 -359 551 0
-359 -554 0
-359 360 0
359 -360 554 0
-360 -557 0
-360 361 0
360 -361 557 0
-361 -561 0
-361 362 0
361 -362 561 0
-362 -564 0
-362 363 0
362 -363 564 0
-363 -567 0
-363 364 0
363 -364 567 0
-364 -572 0
-364 365 0
364 -365 572 0
-365 -576 0
-365 366 0
365 -366 576 0
-366 -580 0
-366 367 0
366 -367 580 0
-367 -584 0
-367 -588 0
367 588 584 0
368 596 0
368 -369 0
-368 369 -596 0
368 0
-369 -527 0
-369 370 0
369 -370 527 0
-370 -531 0
-370 371 0
370 -371 531 0
-371 -535 0
-371 372 0
371 -372 535 0
-372 -539 0
-372 373 0
372 -373 539 0
-373 -543 0
-373 374 0
373 -374 543 0
-374 -547 0
-374 375 0
374 -375 547 0
-375 -551 0
-375 376 0
375 -376 551 0
-376 -554 0
-376 377 0
376 -377 554 0
-377 -557 0
-377 378 0
377 -378 557 0
-378 -561 0
-378 379 0
378 -379 561 0
-379 -564 0
-379 380 0
379 -380 564 0
-380 -567 0
-380 381 0
380 -381 567 0
-381 -572 0
-381 382 0
381 -382 572 0
-382 -576 0
-382 383 0
382 -383 576 0
-383 -580 0
-383 384 0
383 -384 580 0
-384 -584 0
-384 385 0
384 -385 584 0
-385 -588 0
-385 -592 0
385 592 588 0
386 600 0
386 -387 0
-386 387 -600 0
386 0
-387 -527 0
-387 388 0
387 -388 527 0
-388 -531 0
-388 389 0
388 -389 531 0
-389 -535 0
-389 390 0
389 -390 535 0
-390 -539 0
-390 391 0
390 -391 539 0
-391 -543 0
-391 392 0
391 -392 543 0
-392 -547 0
-392 393 0
392 -393 547 0
-393 -551 0
-393 394 0
393 -394 551 0
-394 -554 0
-394 395 0
394 -395 554 0
-395 -557 0
-395 396 0
395 -396 557 0
-396 -561 0
-396 397 0
396 -397 561 0
-397 -564 0
-397 398 0
397 -398 564 0
-398 -567 0
-398 399 0
398 -399 567 0
-399 -572 0
-399 400 0
399 -400 572 0
-400 -576 0
-400 401 0
400 -401 576 0
-401 -580 0
-401 402 0
401 -402 580 0
-402 -584 0
-402 403 0
402 -403 584 0
-403 -588 0
-403 404 0
403 -404 588 0
-404 -592 0
-404 -596 0
404 596 592 0
405 532 0
405 528 0
-405 -528 -532 0
405 0
406 536 0
406 -407 0
-406 407 -536 0
406 0
-407 -532 0
-407 -528 0
407 528 532 0
408 540 0
408 -409 0
-408 409 -540 0
408 0
-409 -528 0
-409 410 0
409 -410 528 0
-410 -532 0
-410 -536 0
410 536 532 0
411 544 0
411 -412 0
-411 412 -544 0
411 0
-412 -528 0
-412 413 0
412 -413 528 0
-413 -532 0
-413 414 0
413 -414 532 0
-414 -536 0
-414 -540 0
414 540 536 0
415 548 0
415 -416 0
-415 416 -548 0
415 0
-416 -528 0
-416 417 0
416 -417 528 0
-417 -532 0
-417 418 0
417 -418 532 0
-418 -536 0
-418 419 0
418 -419 536 0
-419 -540 0
-419 -544 0
419 544 540 0
420 558 0
420 -421 0
-420 421 -558 0
420 0
-421 -528 0
-421 422 0
421 -422 528 0
-422 -532 0
-422 423 0
422 -423 532 0
-423 -536 0
-423 424 0
423 -424 536 0
-424 -540 0
-424 425 0
424 -425 540 0
-425 -544 0
-425 -548 0
425 548 544 0
426 568 0
426 -427 0
-426 427 -568 0
426 0
-427 -528 0
-427 428 0
427 -428 528 0
-428 -532 0
-428 429 0
428 -429 532 0
-429 -536 0
-429 430 0
429 -430 536 0
-430 -540 0
-430 431 0
430 -431 540 0
-431 -544 0
-431 432 0
431 -432 544 0
-432 -548 0
-432 -558 0
432 558 548 0
433 573 0
433 -434 0
-433 434 -573 0
433 0
-434 -528 0
-434 435 0
434 -435 528 0
-435 -532 0
-435 436 0
435 -436 532 0
-436 -536 0
-436 437 0
436 -437 536 0
-437 -540 0
-437 438 0
437 -438 540 0
-438 -544 0
-438 439 0
438 -439 544 0
-439 -548 0
-439 440 0
439 -440 548 0
-440 -558 0
-440 -568 0
440 568 558 0
441 577 0
441 -442 0
-441 442 -577 0
441 0
-442 -528 0
-442 443 0
442 -443 528 0
-443 -532 0
-443 444 0
443 -444 532 0
-444 -536 0
-444 445 0
444 -445 536 0
-445 -540 0
-445 446 0
445 -446 540 0
-446 -544 0
-446 447 0
446 -447 544 0
-447 -548 0
-447 448 0
447 -448 548 0
-448 -558 0
-448 449 0
448 -449 558 0
-449 -568 0
-449 -573 0
449 573 568 0
450 581 0
450 -451 0
-450 451 -581 0
450 0
-451 -528 0
-451 452 0
451 -452 528 0
-452 -532 0
-452 453 0
452 -453 532 0
-453 -536 0
-453 454 0
453 -454 536 0
-454 -540 0
-454 455 0
454 -455 540 0
-455 -544 0
-455 456 0
455 -456 544 0
-456 -548 0
-456 457 0
456 -457 548 0
-457 -558 0
-457 458 0
457 -458 558 0
-458 -568 0
-458 459 0
458 -459 568 0
-459 -573 0
-459 -577 0
459 577 573 0
460 585 0
460 -461 0
-460 461 -585 0
460 0
-461 -528 0
-461 462 0
461 -462 528 0
-462 -532 0
-462 463 0
462 -463 532 0
-463 -536 0
-463 464 0
463 -464 536 0
-464 -540 0
-464 465 0
464 -465 540 0
-465 -544 0
-465 466 0
465 -466 544 0
-466 -548 0
-466 467 0
466 -467 548 0
-467 -558 0
-467 468 0
467 -468 558 0
-468 -568 0
-468 469 0
468 -469 568 0
-469 -573 0
-469 470 0
469 -470 573 0
-470 -577 0
-470 -581 0
470 581 577 0
471 589 0
471 -472 0
-471 472 -589 0
471 0
-472 -528 0
-472 473 0
472 -473 528 0
-473 -532 0
-473 474 0
473 -474 532 0
-474 -536 0
-474 475 0
474 -475 536 0
-475 -540 0
-475 476 0
475 -476 540 0
-476 -544 0
-476 477 0
476 -477 544 0
-477 -548 0
-477 478 0
477 -478 548 0
-478 -558 0
-478 479 0
478 -479 558 0
-479 -568 0
-479 480 0
479 -480 568 0
-480 -573 0
-480 481 0
480 -481 573 0
-481 -577 0
-481 482 0
481 -482 577 0
-482 -581 0
-482 -585 0
482 585 581 0
483 593 0
483 -484 0
-483 484 -593 0
483 0
-484 -528 0
-484 485 0
484 -485 528 0
-485 -532 0
-485 486 0
485 -486 532 0
-486 -536 0
-486 487 0
486 -487 536 0
-487 -540 0
-487 488 0
487 -488 540 0
-488 -544 0
-488 489 0
488 -489 544 0
-489 -548 0
-489 490 0
489 -490 548 0
-490 -558 0
-490 491 0
490 -491 558 0
-491 -568 0
-491 492 0
491 -492 568 0
-492 -573 0
-492 493 0
492 -493 573 0
-493 -577 0
-493 494 0
493 -494 577 0
-494 -581 0
-494 495 0
494 -495 581 0
-495 -585 0
-495 -589 0
495 589 585 0
496 597 0
496 -497 0
-496 497 -597 0
496 0
-497 -528 0
-497 498 0
497 -498 528 0
-498 -532 0
-498 499 0
498 -499 532 0
-499 -536 0
-499 500 0
499 -500 536 0
-500 -540 0
-500 501 0
500 -501 540 0
-501 -544 0
-501 502 0
501 -502 544 0
-502 -548 0
-502 503 0
502 -503 548 0
-503 -558 0
-503 504 0
503 -504 558 0
-504 -568 0
-504 505 0
504 -505 568 0
-505 -573 0
-505 506 0
505 -506 573 0
-506 -577 0
-506 507 0
506 -507 577 0
-507 -581 0
-507 508 0
507 -508 581 0
-508 -585 0
-508 509 0
508 -509 585 0
-509 -589 0
-509 -593 0
509 593 589 0
510 601 0
510 -511 0
-510 511 -601 0
510 0
-511 -528 0
-511 512 0
511 -512 528 0
-512 -532 0
-512 513 0
512 -513 532 0
-513 -536 0
-513 514 0
513 -514 536 0
-514 -540 0
-514 515 0
514 -515 540 0
-515 -544 0
-515 516 0
515 -516 544 0
-516 -548 0
-516 517 0
516 -517 548 0
-517 -558 0
-517 518 0
517 -518 558 0
-518 -568 0
-518 519 0
518 -519 568 0
-519 -573 0
-519 520 0
519 -520 573 0
-520 -577 0
-520 521 0
520 -521 577 0
-521 -581 0
-521 522 0
521 -522 581 0
-522 -585 0
-522 523 0
522 -523 585 0
-523 -589 0
-523 524 0
523 -524 589 0
-524 -593 0
-524 -597 0
524 597 593 0
525 -526 0
525 -529 0
-525 529 526 0
525 0
-526 32 0
-526 599 0
526 -599 -32 0
529 -530 0
529 -533 0
-529 533 530 0
-530 57 0
-530 599 0
530 -599 -57 0
533 -534 0
533 -537 0
-533 537 534 0
-534 34 0
-534 599 0
534 -599 -34 0
537 -538 0
537 -541 0
-537 541 538 0
-538 36 0
-538 599 0
538 -599 -36 0
541 -542 0
541 -545 0
-541 545 542 0
-542 38 0
-542 599 0
542 -599 -38 0
545 -546 0
545 -549 0
-545 549 546 0
-546 40 0
-546 599 0
546 -599 -40 0
549 -550 0
549 -552 0
-549 552 550 0
-550 59 0
-550 599 0
550 -599 -59 0
552 -553 0
552 -555 0
-552 555 553 0
-553 80 0
-553 599 0
553 -599 -80 0
555 -556 0
555 -559 0
-555 559 556 0
-556 82 0
-556 599 0
556 -599 -82 0
559 -560 0
559 -562 0
-559 562 560 0
-560 42 0
-560 599 0
560 -599 -42 0
562 -563 0
562 -565 0
-562 565 563 0
-563 61 0
-563 599 0
563 -599 -61 0
565 -566 0
565 -569 0
-565 569 566 0
-566 70 0
-566 599 0
566 -599 -70 0
569 -570 0
569 -574 0
-569 574 570 0
-570 83 0
-570 571 0
570 -571 -83 0
574 -575 0
574 -578 0
-574 578 575 0
-575 72 0
-575 599 0
575 -599 -72 0
578 -579 0
578 -582 0
-578 582 579 0
-579 44 0
-579 599 0
579 -599 -44 0
582 -583 0
582 -586 0
-582 586 583 0
-583 46 0
-583 599 0
583 -599 -46 0
586 -587 0
586 -590 0
-586 590 587 0
-587 62 0
-587 599 0
587 -599 -62 0
590 -591 0
590 -594 0
-590 594 591 0
-591 48 0
-591 599 0
591 -599 -48 0
594 -595 0
594 -598 0
-594 598 595 0
-595 73 0
-595 599 0
595 -599 -73 0
-598 49 0
-598 599 0
598 -599 -49 0
